0 3736
3 3698
4 3682
6 3647
8 3640
11 3637
16 3604
17 3573
18 3571
20 3546
24 3540
31 3529
33 3517
39 3474
46 3462
50 3459
58 3449
60 3428
84 3408
98 3392
104 3390
169 3387
198 3379
267 3355
268 3343
290 3338
305 3332
313 3328
361 3327
448 3323
455 3318
614 3309
687 3308
700 3303
787 3294
824 3291
826 3288
828 3283
850 3276
855 3271
880 3261
963 3260
967 3247
1012 3244
1025 3225
1026 3202
1056 3201
1274 3199
1366 3198
1428 3194
1807 3190
2580 3188
2599 3184
2620 3178
2639 3175
2744 3171
